p cnf 44 128
a 1 34 0
e 2 3 4 5 6 7 8 9 10 11 12 13 14 15 16 17 18 19 20 21 22 23 24 25 26 27 28 29 30 31 32 33 35 36 37 38 39 40 41 42 43 44 0
3 -1 0
3 2 0
1 -2 -3 0
3 -4 0
-3 -4 0
6 4 0
6 -5 0
-4 5 -6 0
-8 7 0
-8 -7 0
9 8 0
9 2 0
-8 -2 -9 0
-10 4 0
-10 -9 0
-4 9 10 0
-11 6 0
-11 -10 0
-6 10 11 0
-12 2 0
-12 5 0
-2 -5 12 0
2 -13 -14 0
-2 13 -14 0
2 13 14 0
-2 -13 14 0
-15 -5 0
-15 1 0
5 -1 15 0
-15 7 -16 0
15 -7 -16 0
-15 -7 16 0
15 7 16 0
14 -16 -17 0
-14 16 -17 0
14 16 17 0
-14 -16 17 0
17 -18 -19 0
-17 18 -19 0
17 18 19 0
-17 -18 19 0
-12 19 -20 0
12 -19 -20 0
-12 -19 20 0
12 19 20 0
-21 -9 0
-21 2 0
9 -2 21 0
22 -20 0
22 21 0
20 -21 -22 0
24 -23 0
24 4 0
23 -4 -24 0
-26 24 0
-26 -25 0
-24 25 26 0
27 -9 0
27 13 0
9 -13 -27 0
-28 23 0
-28 27 0
-23 -27 28 0
29 -26 0
29 28 0
26 -28 -29 0
-22 29 -30 0
22 -29 -30 0
-22 -29 30 0
22 29 30 0
-31 -11 0
-31 -30 0
11 30 31 0
4 -17 -32 0
-4 17 -32 0
4 17 32 0
-4 -17 32 0
-33 -15 0
-33 -32 0
15 32 33 0
-34 -18 0
-34 5 0
18 -5 34 0
-35 -33 0
-35 -34 0
33 34 35 0
31 35 -36 0
-31 -35 -36 0
31 -35 36 0
-31 35 36 0
-37 -2 0
-37 -1 0
2 1 37 0
-38 -37 0
-38 -37 0
37 38 0
-36 38 -39 0
36 -38 -39 0
-36 -38 39 0
36 38 39 0
-40 -34 0
-40 9 0
34 -9 40 0
41 -27 0
41 5 0
27 -5 -41 0
-42 40 0
-42 -41 0
-40 41 42 0
43 -14 0
43 42 0
14 -42 -43 0
44 39 0
44 43 0
-39 -43 -44 0
-16 -9 -22 24 0
-44 -33 39 0
-40 -41 36 -26 30 0
-14 -42 18 31 0
13 2 -12 -15 43 25 0
-9 -4 -16 -31 -22 -40 -37 0
7 -31 27 0
-10 -27 9 0
35 -40 29 23 0
36 -3 -25 6 28 0
7 -39 -32 -42 11 0
-8 -34 44 3 0
44 0
